; benchmark generated from python API
(set-info :status unknown)
(declare-fun x_epoch () Int)
(declare-fun y_epoch () Int)
(declare-fun x_plus_epoch () Int)
(declare-fun x_plus_month () Int)
(declare-fun x_plus_year () Int)
(declare-fun x_plus_day () Int)
(declare-fun x_plus_1_epoch () Int)
(assert
 (>= x_epoch (- 36584)))
(assert
 (<= x_epoch 36829))
(assert
 (>= y_epoch (- 36584)))
(assert
 (<= y_epoch 36829))
(assert
 (>= x_epoch 7244))
(assert
 (<= x_epoch 7276))
(assert
 (>= x_plus_epoch (- 36584)))
(assert
 (<= x_plus_epoch 36829))
(assert
 (let (($x755 (= x_plus_month 11)))
 (let (($x3429 (= x_plus_month 9)))
 (let (($x500 (= x_plus_month 6)))
 (let (($x848 (= x_plus_month 4)))
 (let ((?x1138 (ite (or $x848 $x500 $x3429 $x755) 30 31)))
 (let (($x1574 (= (mod x_plus_year 400) 0)))
 (let (($x646 (= (mod x_plus_year 4) 0)))
 (let (($x3305 (or (and $x646 (and (distinct (mod x_plus_year 100) 0) true)) $x1574)))
 (let (($x654 (= x_plus_month 2)))
 (let (($x395 (>= x_plus_day 1)))
 (let (($x2091 (<= x_plus_month 12)))
 (let (($x717 (>= x_plus_month 1)))
 (let (($x3667 (<= x_plus_year 2100)))
 (let (($x3431 (>= x_plus_year 1900)))
 (and $x3431 $x3667 $x717 $x2091 $x395 (<= x_plus_day (ite $x654 (ite $x3305 29 28) ?x1138))))))))))))))))))
(assert
 (let (($x1574 (= (mod x_plus_year 400) 0)))
 (let (($x646 (= (mod x_plus_year 4) 0)))
 (let (($x3305 (or (and $x646 (and (distinct (mod x_plus_year 100) 0) true)) $x1574)))
 (let ((?x1543 (ite (= 2 x_plus_month) (ite $x3305 31 31) (ite (= 1 x_plus_month) (ite $x3305 0 0) 0))))
 (let ((?x738 (ite (= 4 x_plus_month) (ite $x3305 91 90) (ite (= 3 x_plus_month) (ite $x3305 60 59) ?x1543))))
 (let ((?x602 (ite (= 6 x_plus_month) (ite $x3305 152 151) (ite (= 5 x_plus_month) (ite $x3305 121 120) ?x738))))
 (let ((?x631 (ite (= 8 x_plus_month) (ite $x3305 213 212) (ite (= 7 x_plus_month) (ite $x3305 182 181) ?x602))))
 (let ((?x307 (ite (= 10 x_plus_month) (ite $x3305 274 273) (ite (= 9 x_plus_month) (ite $x3305 244 243) ?x631))))
 (let ((?x2955 (ite (= 12 x_plus_month) (ite $x3305 335 334) (ite (= 11 x_plus_month) (ite $x3305 305 304) ?x307))))
 (let ((?x665 (+ (* 365 (- x_plus_year 1)) (div (- x_plus_year 1) 4))))
 (let ((?x869 (+ (- ?x665 (div (- x_plus_year 1) 100)) (div (- x_plus_year 1) 400))))
 (= x_plus_epoch (- (+ (+ ?x869 ?x2955) (- x_plus_day 1)) 730179))))))))))))))
(assert
 (let ((?x530 (+ x_epoch 730179)))
 (let ((?x467 (mod ?x530 146097)))
 (let ((?x880 (div ?x467 36524)))
 (let ((?x518 (ite (<= 4 ?x880) 3 ?x880)))
 (let ((?x910 (- ?x467 (* ?x518 36524))))
 (let ((?x696 (mod ?x910 1461)))
 (let ((?x1371 (div ?x696 365)))
 (let ((?x2869 (ite (<= 4 ?x1371) 3 ?x1371)))
 (let ((?x3403 (+ (+ (* (div ?x530 146097) 400) (* ?x518 100)) (* (div ?x910 1461) 4))))
 (let ((?x1737 (+ (+ ?x3403 ?x2869) 1)))
 (let (($x1481 (or (and (= (mod ?x1737 4) 0) (and (distinct (mod ?x1737 100) 0) true)) (= (mod ?x1737 400) 0))))
 (let ((?x2810 (- ?x696 (* ?x2869 365))))
 (let ((?x2280 (ite $x1481 31 31)))
 (let (($x496 (>= ?x2810 ?x2280)))
 (let ((?x1283 (ite $x496 (+ (- ?x2810 ?x2280) 1) (+ (- ?x2810 (ite $x1481 0 0)) 1))))
 (let ((?x2531 (ite $x1481 60 59)))
 (let (($x734 (>= ?x2810 ?x2531)))
 (let ((?x3278 (ite $x1481 91 90)))
 (let (($x964 (>= ?x2810 ?x3278)))
 (let ((?x2351 (ite $x964 (+ (- ?x2810 ?x3278) 1) (ite $x734 (+ (- ?x2810 ?x2531) 1) ?x1283))))
 (let ((?x2005 (ite $x1481 121 120)))
 (let (($x1949 (>= ?x2810 ?x2005)))
 (let ((?x1778 (ite $x1481 152 151)))
 (let (($x1430 (>= ?x2810 ?x1778)))
 (let ((?x653 (ite $x1430 (+ (- ?x2810 ?x1778) 1) (ite $x1949 (+ (- ?x2810 ?x2005) 1) ?x2351))))
 (let ((?x1947 (ite $x1481 182 181)))
 (let (($x220 (>= ?x2810 ?x1947)))
 (let ((?x2213 (ite $x1481 213 212)))
 (let (($x297 (>= ?x2810 ?x2213)))
 (let ((?x889 (ite $x297 (+ (- ?x2810 ?x2213) 1) (ite $x220 (+ (- ?x2810 ?x1947) 1) ?x653))))
 (let ((?x350 (ite $x1481 244 243)))
 (let (($x750 (>= ?x2810 ?x350)))
 (let ((?x620 (ite $x1481 274 273)))
 (let (($x865 (>= ?x2810 ?x620)))
 (let ((?x705 (ite $x865 (+ (- ?x2810 ?x620) 1) (ite $x750 (+ (- ?x2810 ?x350) 1) ?x889))))
 (let ((?x494 (ite $x1481 305 304)))
 (let (($x466 (>= ?x2810 ?x494)))
 (let ((?x641 (ite $x1481 335 334)))
 (let (($x783 (>= ?x2810 ?x641)))
 (let ((?x732 (ite $x783 (+ (- ?x2810 ?x641) 1) (ite $x466 (+ (- ?x2810 ?x494) 1) ?x705))))
 (let ((?x2726 (+ (* 1 12) 0)))
 (let ((?x780 (ite $x1949 5 (ite $x964 4 (ite $x734 3 (ite $x496 2 1))))))
 (let ((?x529 (ite $x750 9 (ite $x297 8 (ite $x220 7 (ite $x1430 6 ?x780))))))
 (let ((?x521 (ite $x783 12 (ite $x466 11 (ite $x865 10 ?x529)))))
 (let ((?x3638 (+ ?x521 ?x2726)))
 (let ((?x3132 (- ?x3638 1)))
 (let ((?x793 (+ (mod ?x3132 12) 1)))
 (let ((?x3575 (ite (or (= ?x793 4) (= ?x793 6) (= ?x793 9) (= ?x793 11)) 30 31)))
 (let (($x1538 (and (= (mod (+ ?x1737 (+ 0 (div ?x3132 12))) 4) 0) (and (distinct (mod (+ ?x1737 (+ 0 (div ?x3132 12))) 100) 0) true))))
 (let (($x3468 (or $x1538 (= (mod (+ ?x1737 (+ 0 (div ?x3132 12))) 400) 0))))
 (let ((?x2286 (ite (= ?x793 2) (ite $x3468 29 28) ?x3575)))
 (let (($x881 (> 1 ?x732)))
 (let ((?x1679 (ite $x881 1 (ite (> ?x732 ?x2286) ?x2286 ?x732))))
 (let ((?x3640 (ite (> 1 ?x1679) 1 (ite (> ?x1679 ?x2286) ?x2286 ?x1679))))
 (let ((?x2144 (ite (= 2 ?x793) (ite $x3468 31 31) (ite (= 1 ?x793) (ite $x3468 0 0) 0))))
 (let ((?x1741 (ite (= 4 ?x793) (ite $x3468 91 90) (ite (= 3 ?x793) (ite $x3468 60 59) ?x2144))))
 (let ((?x1885 (ite (= 6 ?x793) (ite $x3468 152 151) (ite (= 5 ?x793) (ite $x3468 121 120) ?x1741))))
 (let ((?x480 (ite (= 8 ?x793) (ite $x3468 213 212) (ite (= 7 ?x793) (ite $x3468 182 181) ?x1885))))
 (let ((?x2903 (ite (= 10 ?x793) (ite $x3468 274 273) (ite (= 9 ?x793) (ite $x3468 244 243) ?x480))))
 (let ((?x1471 (ite (= 12 ?x793) (ite $x3468 335 334) (ite (= 11 ?x793) (ite $x3468 305 304) ?x2903))))
 (let ((?x2957 (+ (* 365 (- (+ ?x1737 (+ 0 (div ?x3132 12))) 1)) (div (- (+ ?x1737 (+ 0 (div ?x3132 12))) 1) 4))))
 (let ((?x2924 (+ (- ?x2957 (div (- (+ ?x1737 (+ 0 (div ?x3132 12))) 1) 100)) (div (- (+ ?x1737 (+ 0 (div ?x3132 12))) 1) 400))))
 (let ((?x2657 (+ (+ (- (+ (+ ?x2924 ?x1471) (- ?x3640 1)) 730179) 0) 730179)))
 (let ((?x1822 (mod ?x2657 146097)))
 (let ((?x2183 (div ?x1822 36524)))
 (let ((?x1717 (ite (<= 4 ?x2183) 3 ?x2183)))
 (let ((?x636 (- ?x1822 (* ?x1717 36524))))
 (let ((?x1437 (mod ?x636 1461)))
 (let ((?x1171 (div ?x1437 365)))
 (let ((?x625 (ite (<= 4 ?x1171) 3 ?x1171)))
 (let ((?x412 (+ (+ (* (div ?x2657 146097) 400) (* ?x1717 100)) (* (div ?x636 1461) 4))))
 (let ((?x3444 (+ (+ ?x412 ?x625) 1)))
 (let ((?x2284 (+ 0 (div ?x3132 12))))
 (let ((?x2844 (+ ?x1737 ?x2284)))
 (let (($x879 (= 0 0)))
 (let ((?x3150 (ite $x879 ?x2844 ?x3444)))
 (= x_plus_year ?x3150))))))))))))))))))))))))))))))))))))))))))))))))))))))))))))))))))))))))))))))
(assert
 (let ((?x530 (+ x_epoch 730179)))
 (let ((?x467 (mod ?x530 146097)))
 (let ((?x880 (div ?x467 36524)))
 (let ((?x518 (ite (<= 4 ?x880) 3 ?x880)))
 (let ((?x910 (- ?x467 (* ?x518 36524))))
 (let ((?x696 (mod ?x910 1461)))
 (let ((?x1371 (div ?x696 365)))
 (let ((?x2869 (ite (<= 4 ?x1371) 3 ?x1371)))
 (let ((?x3403 (+ (+ (* (div ?x530 146097) 400) (* ?x518 100)) (* (div ?x910 1461) 4))))
 (let ((?x1737 (+ (+ ?x3403 ?x2869) 1)))
 (let (($x1481 (or (and (= (mod ?x1737 4) 0) (and (distinct (mod ?x1737 100) 0) true)) (= (mod ?x1737 400) 0))))
 (let ((?x2810 (- ?x696 (* ?x2869 365))))
 (let ((?x2280 (ite $x1481 31 31)))
 (let (($x496 (>= ?x2810 ?x2280)))
 (let ((?x1283 (ite $x496 (+ (- ?x2810 ?x2280) 1) (+ (- ?x2810 (ite $x1481 0 0)) 1))))
 (let ((?x2531 (ite $x1481 60 59)))
 (let (($x734 (>= ?x2810 ?x2531)))
 (let ((?x3278 (ite $x1481 91 90)))
 (let (($x964 (>= ?x2810 ?x3278)))
 (let ((?x2351 (ite $x964 (+ (- ?x2810 ?x3278) 1) (ite $x734 (+ (- ?x2810 ?x2531) 1) ?x1283))))
 (let ((?x2005 (ite $x1481 121 120)))
 (let (($x1949 (>= ?x2810 ?x2005)))
 (let ((?x1778 (ite $x1481 152 151)))
 (let (($x1430 (>= ?x2810 ?x1778)))
 (let ((?x653 (ite $x1430 (+ (- ?x2810 ?x1778) 1) (ite $x1949 (+ (- ?x2810 ?x2005) 1) ?x2351))))
 (let ((?x1947 (ite $x1481 182 181)))
 (let (($x220 (>= ?x2810 ?x1947)))
 (let ((?x2213 (ite $x1481 213 212)))
 (let (($x297 (>= ?x2810 ?x2213)))
 (let ((?x889 (ite $x297 (+ (- ?x2810 ?x2213) 1) (ite $x220 (+ (- ?x2810 ?x1947) 1) ?x653))))
 (let ((?x350 (ite $x1481 244 243)))
 (let (($x750 (>= ?x2810 ?x350)))
 (let ((?x620 (ite $x1481 274 273)))
 (let (($x865 (>= ?x2810 ?x620)))
 (let ((?x705 (ite $x865 (+ (- ?x2810 ?x620) 1) (ite $x750 (+ (- ?x2810 ?x350) 1) ?x889))))
 (let ((?x494 (ite $x1481 305 304)))
 (let (($x466 (>= ?x2810 ?x494)))
 (let ((?x641 (ite $x1481 335 334)))
 (let (($x783 (>= ?x2810 ?x641)))
 (let ((?x732 (ite $x783 (+ (- ?x2810 ?x641) 1) (ite $x466 (+ (- ?x2810 ?x494) 1) ?x705))))
 (let ((?x2726 (+ (* 1 12) 0)))
 (let ((?x780 (ite $x1949 5 (ite $x964 4 (ite $x734 3 (ite $x496 2 1))))))
 (let ((?x529 (ite $x750 9 (ite $x297 8 (ite $x220 7 (ite $x1430 6 ?x780))))))
 (let ((?x521 (ite $x783 12 (ite $x466 11 (ite $x865 10 ?x529)))))
 (let ((?x3638 (+ ?x521 ?x2726)))
 (let ((?x3132 (- ?x3638 1)))
 (let ((?x793 (+ (mod ?x3132 12) 1)))
 (let ((?x3575 (ite (or (= ?x793 4) (= ?x793 6) (= ?x793 9) (= ?x793 11)) 30 31)))
 (let (($x1538 (and (= (mod (+ ?x1737 (+ 0 (div ?x3132 12))) 4) 0) (and (distinct (mod (+ ?x1737 (+ 0 (div ?x3132 12))) 100) 0) true))))
 (let (($x3468 (or $x1538 (= (mod (+ ?x1737 (+ 0 (div ?x3132 12))) 400) 0))))
 (let ((?x2286 (ite (= ?x793 2) (ite $x3468 29 28) ?x3575)))
 (let (($x881 (> 1 ?x732)))
 (let ((?x1679 (ite $x881 1 (ite (> ?x732 ?x2286) ?x2286 ?x732))))
 (let ((?x3640 (ite (> 1 ?x1679) 1 (ite (> ?x1679 ?x2286) ?x2286 ?x1679))))
 (let ((?x2144 (ite (= 2 ?x793) (ite $x3468 31 31) (ite (= 1 ?x793) (ite $x3468 0 0) 0))))
 (let ((?x1741 (ite (= 4 ?x793) (ite $x3468 91 90) (ite (= 3 ?x793) (ite $x3468 60 59) ?x2144))))
 (let ((?x1885 (ite (= 6 ?x793) (ite $x3468 152 151) (ite (= 5 ?x793) (ite $x3468 121 120) ?x1741))))
 (let ((?x480 (ite (= 8 ?x793) (ite $x3468 213 212) (ite (= 7 ?x793) (ite $x3468 182 181) ?x1885))))
 (let ((?x2903 (ite (= 10 ?x793) (ite $x3468 274 273) (ite (= 9 ?x793) (ite $x3468 244 243) ?x480))))
 (let ((?x1471 (ite (= 12 ?x793) (ite $x3468 335 334) (ite (= 11 ?x793) (ite $x3468 305 304) ?x2903))))
 (let ((?x2957 (+ (* 365 (- (+ ?x1737 (+ 0 (div ?x3132 12))) 1)) (div (- (+ ?x1737 (+ 0 (div ?x3132 12))) 1) 4))))
 (let ((?x2924 (+ (- ?x2957 (div (- (+ ?x1737 (+ 0 (div ?x3132 12))) 1) 100)) (div (- (+ ?x1737 (+ 0 (div ?x3132 12))) 1) 400))))
 (let ((?x2657 (+ (+ (- (+ (+ ?x2924 ?x1471) (- ?x3640 1)) 730179) 0) 730179)))
 (let ((?x1822 (mod ?x2657 146097)))
 (let ((?x2183 (div ?x1822 36524)))
 (let ((?x1717 (ite (<= 4 ?x2183) 3 ?x2183)))
 (let ((?x636 (- ?x1822 (* ?x1717 36524))))
 (let ((?x1437 (mod ?x636 1461)))
 (let ((?x1171 (div ?x1437 365)))
 (let ((?x625 (ite (<= 4 ?x1171) 3 ?x1171)))
 (let ((?x412 (+ (+ (* (div ?x2657 146097) 400) (* ?x1717 100)) (* (div ?x636 1461) 4))))
 (let ((?x3444 (+ (+ ?x412 ?x625) 1)))
 (let (($x2968 (or (and (= (mod ?x3444 4) 0) (and (distinct (mod ?x3444 100) 0) true)) (= (mod ?x3444 400) 0))))
 (let ((?x2938 (ite $x2968 31 31)))
 (let ((?x271 (- ?x1437 (* ?x625 365))))
 (let (($x2340 (>= ?x271 ?x2938)))
 (let ((?x1299 (ite $x2968 60 59)))
 (let (($x2503 (>= ?x271 ?x1299)))
 (let ((?x2763 (ite $x2968 91 90)))
 (let (($x804 (>= ?x271 ?x2763)))
 (let ((?x549 (ite $x2968 121 120)))
 (let (($x2007 (>= ?x271 ?x549)))
 (let ((?x264 (ite $x2007 5 (ite $x804 4 (ite $x2503 3 (ite $x2340 2 1))))))
 (let ((?x2870 (ite $x2968 152 151)))
 (let (($x371 (>= ?x271 ?x2870)))
 (let ((?x2141 (ite $x2968 182 181)))
 (let (($x510 (>= ?x271 ?x2141)))
 (let ((?x822 (ite $x2968 213 212)))
 (let (($x3622 (>= ?x271 ?x822)))
 (let ((?x719 (ite $x2968 244 243)))
 (let (($x899 (>= ?x271 ?x719)))
 (let ((?x2873 (ite $x899 9 (ite $x3622 8 (ite $x510 7 (ite $x371 6 ?x264))))))
 (let ((?x256 (ite $x2968 274 273)))
 (let (($x1594 (>= ?x271 ?x256)))
 (let ((?x2103 (ite $x2968 305 304)))
 (let (($x3339 (>= ?x271 ?x2103)))
 (let ((?x797 (ite $x2968 335 334)))
 (let (($x1973 (>= ?x271 ?x797)))
 (let (($x879 (= 0 0)))
 (let ((?x3185 (ite $x879 ?x793 (ite $x1973 12 (ite $x3339 11 (ite $x1594 10 ?x2873))))))
 (= x_plus_month ?x3185))))))))))))))))))))))))))))))))))))))))))))))))))))))))))))))))))))))))))))))))))))))))))))))))))))))
(assert
 (let ((?x530 (+ x_epoch 730179)))
 (let ((?x467 (mod ?x530 146097)))
 (let ((?x880 (div ?x467 36524)))
 (let ((?x518 (ite (<= 4 ?x880) 3 ?x880)))
 (let ((?x910 (- ?x467 (* ?x518 36524))))
 (let ((?x696 (mod ?x910 1461)))
 (let ((?x1371 (div ?x696 365)))
 (let ((?x2869 (ite (<= 4 ?x1371) 3 ?x1371)))
 (let ((?x3403 (+ (+ (* (div ?x530 146097) 400) (* ?x518 100)) (* (div ?x910 1461) 4))))
 (let ((?x1737 (+ (+ ?x3403 ?x2869) 1)))
 (let (($x1481 (or (and (= (mod ?x1737 4) 0) (and (distinct (mod ?x1737 100) 0) true)) (= (mod ?x1737 400) 0))))
 (let ((?x2810 (- ?x696 (* ?x2869 365))))
 (let ((?x2280 (ite $x1481 31 31)))
 (let (($x496 (>= ?x2810 ?x2280)))
 (let ((?x1283 (ite $x496 (+ (- ?x2810 ?x2280) 1) (+ (- ?x2810 (ite $x1481 0 0)) 1))))
 (let ((?x2531 (ite $x1481 60 59)))
 (let (($x734 (>= ?x2810 ?x2531)))
 (let ((?x3278 (ite $x1481 91 90)))
 (let (($x964 (>= ?x2810 ?x3278)))
 (let ((?x2351 (ite $x964 (+ (- ?x2810 ?x3278) 1) (ite $x734 (+ (- ?x2810 ?x2531) 1) ?x1283))))
 (let ((?x2005 (ite $x1481 121 120)))
 (let (($x1949 (>= ?x2810 ?x2005)))
 (let ((?x1778 (ite $x1481 152 151)))
 (let (($x1430 (>= ?x2810 ?x1778)))
 (let ((?x653 (ite $x1430 (+ (- ?x2810 ?x1778) 1) (ite $x1949 (+ (- ?x2810 ?x2005) 1) ?x2351))))
 (let ((?x1947 (ite $x1481 182 181)))
 (let (($x220 (>= ?x2810 ?x1947)))
 (let ((?x2213 (ite $x1481 213 212)))
 (let (($x297 (>= ?x2810 ?x2213)))
 (let ((?x889 (ite $x297 (+ (- ?x2810 ?x2213) 1) (ite $x220 (+ (- ?x2810 ?x1947) 1) ?x653))))
 (let ((?x350 (ite $x1481 244 243)))
 (let (($x750 (>= ?x2810 ?x350)))
 (let ((?x620 (ite $x1481 274 273)))
 (let (($x865 (>= ?x2810 ?x620)))
 (let ((?x705 (ite $x865 (+ (- ?x2810 ?x620) 1) (ite $x750 (+ (- ?x2810 ?x350) 1) ?x889))))
 (let ((?x494 (ite $x1481 305 304)))
 (let (($x466 (>= ?x2810 ?x494)))
 (let ((?x641 (ite $x1481 335 334)))
 (let (($x783 (>= ?x2810 ?x641)))
 (let ((?x732 (ite $x783 (+ (- ?x2810 ?x641) 1) (ite $x466 (+ (- ?x2810 ?x494) 1) ?x705))))
 (let ((?x2726 (+ (* 1 12) 0)))
 (let ((?x780 (ite $x1949 5 (ite $x964 4 (ite $x734 3 (ite $x496 2 1))))))
 (let ((?x529 (ite $x750 9 (ite $x297 8 (ite $x220 7 (ite $x1430 6 ?x780))))))
 (let ((?x521 (ite $x783 12 (ite $x466 11 (ite $x865 10 ?x529)))))
 (let ((?x3638 (+ ?x521 ?x2726)))
 (let ((?x3132 (- ?x3638 1)))
 (let ((?x793 (+ (mod ?x3132 12) 1)))
 (let ((?x3575 (ite (or (= ?x793 4) (= ?x793 6) (= ?x793 9) (= ?x793 11)) 30 31)))
 (let (($x1538 (and (= (mod (+ ?x1737 (+ 0 (div ?x3132 12))) 4) 0) (and (distinct (mod (+ ?x1737 (+ 0 (div ?x3132 12))) 100) 0) true))))
 (let (($x3468 (or $x1538 (= (mod (+ ?x1737 (+ 0 (div ?x3132 12))) 400) 0))))
 (let ((?x2286 (ite (= ?x793 2) (ite $x3468 29 28) ?x3575)))
 (let (($x881 (> 1 ?x732)))
 (let ((?x1679 (ite $x881 1 (ite (> ?x732 ?x2286) ?x2286 ?x732))))
 (let ((?x3640 (ite (> 1 ?x1679) 1 (ite (> ?x1679 ?x2286) ?x2286 ?x1679))))
 (let ((?x2144 (ite (= 2 ?x793) (ite $x3468 31 31) (ite (= 1 ?x793) (ite $x3468 0 0) 0))))
 (let ((?x1741 (ite (= 4 ?x793) (ite $x3468 91 90) (ite (= 3 ?x793) (ite $x3468 60 59) ?x2144))))
 (let ((?x1885 (ite (= 6 ?x793) (ite $x3468 152 151) (ite (= 5 ?x793) (ite $x3468 121 120) ?x1741))))
 (let ((?x480 (ite (= 8 ?x793) (ite $x3468 213 212) (ite (= 7 ?x793) (ite $x3468 182 181) ?x1885))))
 (let ((?x2903 (ite (= 10 ?x793) (ite $x3468 274 273) (ite (= 9 ?x793) (ite $x3468 244 243) ?x480))))
 (let ((?x1471 (ite (= 12 ?x793) (ite $x3468 335 334) (ite (= 11 ?x793) (ite $x3468 305 304) ?x2903))))
 (let ((?x2957 (+ (* 365 (- (+ ?x1737 (+ 0 (div ?x3132 12))) 1)) (div (- (+ ?x1737 (+ 0 (div ?x3132 12))) 1) 4))))
 (let ((?x2924 (+ (- ?x2957 (div (- (+ ?x1737 (+ 0 (div ?x3132 12))) 1) 100)) (div (- (+ ?x1737 (+ 0 (div ?x3132 12))) 1) 400))))
 (let ((?x2657 (+ (+ (- (+ (+ ?x2924 ?x1471) (- ?x3640 1)) 730179) 0) 730179)))
 (let ((?x1822 (mod ?x2657 146097)))
 (let ((?x2183 (div ?x1822 36524)))
 (let ((?x1717 (ite (<= 4 ?x2183) 3 ?x2183)))
 (let ((?x636 (- ?x1822 (* ?x1717 36524))))
 (let ((?x1437 (mod ?x636 1461)))
 (let ((?x1171 (div ?x1437 365)))
 (let ((?x625 (ite (<= 4 ?x1171) 3 ?x1171)))
 (let ((?x412 (+ (+ (* (div ?x2657 146097) 400) (* ?x1717 100)) (* (div ?x636 1461) 4))))
 (let ((?x3444 (+ (+ ?x412 ?x625) 1)))
 (let (($x2968 (or (and (= (mod ?x3444 4) 0) (and (distinct (mod ?x3444 100) 0) true)) (= (mod ?x3444 400) 0))))
 (let ((?x271 (- ?x1437 (* ?x625 365))))
 (let ((?x2938 (ite $x2968 31 31)))
 (let (($x2340 (>= ?x271 ?x2938)))
 (let ((?x3399 (ite $x2340 (+ (- ?x271 ?x2938) 1) (+ (- ?x271 (ite $x2968 0 0)) 1))))
 (let ((?x1299 (ite $x2968 60 59)))
 (let (($x2503 (>= ?x271 ?x1299)))
 (let ((?x2763 (ite $x2968 91 90)))
 (let (($x804 (>= ?x271 ?x2763)))
 (let ((?x1315 (ite $x804 (+ (- ?x271 ?x2763) 1) (ite $x2503 (+ (- ?x271 ?x1299) 1) ?x3399))))
 (let ((?x549 (ite $x2968 121 120)))
 (let (($x2007 (>= ?x271 ?x549)))
 (let ((?x2870 (ite $x2968 152 151)))
 (let (($x371 (>= ?x271 ?x2870)))
 (let ((?x2838 (ite $x371 (+ (- ?x271 ?x2870) 1) (ite $x2007 (+ (- ?x271 ?x549) 1) ?x1315))))
 (let ((?x2141 (ite $x2968 182 181)))
 (let (($x510 (>= ?x271 ?x2141)))
 (let ((?x822 (ite $x2968 213 212)))
 (let (($x3622 (>= ?x271 ?x822)))
 (let ((?x1182 (ite $x3622 (+ (- ?x271 ?x822) 1) (ite $x510 (+ (- ?x271 ?x2141) 1) ?x2838))))
 (let ((?x719 (ite $x2968 244 243)))
 (let (($x899 (>= ?x271 ?x719)))
 (let ((?x256 (ite $x2968 274 273)))
 (let (($x1594 (>= ?x271 ?x256)))
 (let ((?x2451 (ite $x1594 (+ (- ?x271 ?x256) 1) (ite $x899 (+ (- ?x271 ?x719) 1) ?x1182))))
 (let ((?x2103 (ite $x2968 305 304)))
 (let (($x3339 (>= ?x271 ?x2103)))
 (let ((?x797 (ite $x2968 335 334)))
 (let (($x1973 (>= ?x271 ?x797)))
 (let ((?x765 (ite $x1973 (+ (- ?x271 ?x797) 1) (ite $x3339 (+ (- ?x271 ?x2103) 1) ?x2451))))
 (let (($x879 (= 0 0)))
 (let ((?x774 (ite $x879 ?x3640 ?x765)))
 (= x_plus_day ?x774))))))))))))))))))))))))))))))))))))))))))))))))))))))))))))))))))))))))))))))))))))))))))))))))))))))))))
(assert
 (= y_epoch x_plus_epoch))
(assert
 (>= x_plus_1_epoch (- 36584)))
(assert
 (<= x_plus_1_epoch 36829))
(assert
 (= x_plus_1_epoch (+ x_epoch 365)))
(assert
 (not (= y_epoch x_plus_1_epoch)))
(check-sat)
